[VALIDATOR STDOUT]
Checking plan: /home/jfan5/Safety-gen/runs/benchmark/optic/grippers_20260205_114054/grippers/optic_results/grippers-n2-r12-o10-s10001.plan
Plan executed successfully - checking goal
Plan valid
Final value: 35 

Successful plans:
Value: 35
 /home/jfan5/Safety-gen/runs/benchmark/optic/grippers_20260205_114054/grippers/optic_results/grippers-n2-r12-o10-s10001.plan 35
